;; Mutation-Based Equivalence Benchmark
;; Source:     AutomatArk / instance12073.smt2
;; Mutations:  bound_lower_dec, intersect_ascii_printable_only, bound_lower_dec
;; Status:     sat
;;
;; Original regex vs mutated regex
;; Equivalence check: unsat ⟺ L(R1) = L(R2)

(set-info :smt-lib-version 2.6)
(set-info :category "mutation")
(set-info :status sat)
(set-logic QF_S)

(declare-const x String)

;; R1: original
;; R2: mutated (bound_lower_dec, intersect_ascii_printable_only, bound_lower_dec)
(assert
  (str.in_re x
    (re.union (re.inter (re.++ (re.union (re.++ (str.to_re "AT") (re.opt (str.to_re " ")) (str.to_re "U") ((_ re.loop 7 7) (re.range "0" "9"))) (re.++ (str.to_re "BE") (re.opt (str.to_re " ")) ((_ re.loop 10 10) (re.range "0" "9"))) (re.++ (str.to_re "BG") (re.opt (str.to_re " ")) ((_ re.loop 9 10) (re.range "0" "9"))) (re.++ (str.to_re "CY") (re.opt (str.to_re " ")) ((_ re.loop 8 8) (re.range "0" "9")) ((_ re.loop 1 1) (re.range "A" "Z"))) (re.++ (str.to_re "CZ") (re.opt (str.to_re " ")) ((_ re.loop 8 10) (re.range "0" "9"))) (re.++ (str.to_re "DE") (re.opt (str.to_re " ")) ((_ re.loop 9 9) (re.range "0" "9"))) (re.++ (str.to_re "DK") (re.opt (str.to_re " ")) ((_ re.loop 8 8) (re.range "0" "9"))) (re.++ (str.to_re "EE") (re.opt (str.to_re " ")) ((_ re.loop 9 9) (re.range "0" "9"))) (re.++ (str.to_re "EL") (re.opt (str.to_re " ")) ((_ re.loop 9 9) (re.range "0" "9"))) (re.++ (str.to_re "ES") (re.opt (str.to_re " ")) ((_ re.loop 9 9) (re.union (re.range "0" "9") (re.range "A" "Z")))) (re.++ (str.to_re "FI") (re.opt (str.to_re " ")) ((_ re.loop 8 8) (re.range "0" "9"))) (re.++ (str.to_re "FR") (re.opt (str.to_re " ")) ((_ re.loop 11 11) (re.union (re.range "0" "9") (re.range "A" "Z")))) (re.++ (str.to_re "HU") (re.opt (str.to_re " ")) ((_ re.loop 8 8) (re.range "0" "9"))) (re.++ (str.to_re "IE") (re.opt (str.to_re " ")) ((_ re.loop 8 8) (re.union (re.range "0" "9") (re.range "A" "Z")))) (re.++ (str.to_re "IT") (re.opt (str.to_re " ")) ((_ re.loop 11 11) (re.range "0" "9"))) (re.++ (str.to_re "LT") (re.opt (str.to_re " ")) (re.union ((_ re.loop 9 9) (re.range "0" "9")) ((_ re.loop 12 12) (re.range "0" "9")))) (re.++ (str.to_re "LU") (re.opt (str.to_re " ")) ((_ re.loop 8 8) (re.range "0" "9"))) (re.++ (str.to_re "LV") (re.opt (str.to_re " ")) ((_ re.loop 11 11) (re.range "0" "9"))) (re.++ (str.to_re "MT") (re.opt (str.to_re " ")) ((_ re.loop 8 8) (re.range "0" "9"))) (re.++ (str.to_re "NL") (re.opt (str.to_re " ")) ((_ re.loop 12 12) (re.union (re.range "0" "9") (str.to_re "B")))) (re.++ (str.to_re "PL") (re.opt (str.to_re " ")) ((_ re.loop 10 10) (re.range "0" "9"))) (re.++ (str.to_re "PT") (re.opt (str.to_re " ")) ((_ re.loop 9 9) (re.range "0" "9"))) (re.++ (str.to_re "RO") (re.opt (str.to_re " ")) ((_ re.loop 2 10) (re.range "0" "9"))) (re.++ (str.to_re "SE") (re.opt (str.to_re " ")) ((_ re.loop 12 12) (re.range "0" "9"))) (re.++ (str.to_re "SI") (re.opt (str.to_re " ")) ((_ re.loop 8 8) (re.range "0" "9"))) (re.++ (str.to_re "SK") (re.opt (str.to_re " ")) ((_ re.loop 10 10) (re.range "0" "9")))) (str.to_re "\u{a}")) (re.comp (re.++ (re.union (re.++ (str.to_re "AT") (re.opt (str.to_re " ")) (str.to_re "U") ((_ re.loop 7 7) (re.range "0" "9"))) (re.++ (str.to_re "BE") (re.opt (str.to_re " ")) ((_ re.loop 10 10) (re.range "0" "9"))) (re.++ (str.to_re "BG") (re.opt (str.to_re " ")) ((_ re.loop 9 10) (re.range "0" "9"))) (re.++ (str.to_re "CY") (re.opt (str.to_re " ")) ((_ re.loop 8 8) (re.range "0" "9")) ((_ re.loop 1 1) (re.range "A" "Z"))) (re.++ (str.to_re "CZ") (re.opt (str.to_re " ")) ((_ re.loop 8 10) (re.range "0" "9"))) (re.++ (str.to_re "DE") (re.opt (str.to_re " ")) ((_ re.loop 9 9) (re.range "0" "9"))) (re.++ (str.to_re "DK") (re.opt (str.to_re " ")) ((_ re.loop 8 8) (re.range "0" "9"))) (re.++ (str.to_re "EE") (re.opt (str.to_re " ")) ((_ re.loop 9 9) (re.range "0" "9"))) (re.++ (str.to_re "EL") (re.opt (str.to_re " ")) ((_ re.loop 9 9) (re.range "0" "9"))) (re.++ (str.to_re "ES") (re.opt (str.to_re " ")) ((_ re.loop 9 9) (re.union (re.range "0" "9") (re.range "A" "Z")))) (re.++ (str.to_re "FI") (re.opt (str.to_re " ")) ((_ re.loop 8 8) (re.range "0" "9"))) (re.++ (str.to_re "FR") (re.opt (str.to_re " ")) ((_ re.loop 11 11) (re.union (re.range "0" "9") (re.range "A" "Z")))) (re.++ (str.to_re "HU") (re.opt (str.to_re " ")) ((_ re.loop 7 8) (re.range "0" "9"))) (re.++ (str.to_re "IE") (re.opt (str.to_re " ")) ((_ re.loop 8 8) (re.union (re.range "0" "9") (re.range "A" "Z")))) (re.++ (str.to_re "IT") (re.opt (str.to_re " ")) ((_ re.loop 11 11) (re.range "0" "9"))) (re.++ (str.to_re "LT") (re.opt (str.to_re " ")) (re.union ((_ re.loop 9 9) (re.range "0" "9")) ((_ re.loop 12 12) (re.range "0" "9")))) (re.++ (str.to_re "LU") (re.inter (re.opt (str.to_re " ")) (re.* (re.range " " "~"))) ((_ re.loop 8 8) (re.range "0" "9"))) (re.++ (str.to_re "LV") (re.opt (str.to_re " ")) ((_ re.loop 11 11) (re.range "0" "9"))) (re.++ (str.to_re "MT") (re.opt (str.to_re " ")) ((_ re.loop 8 8) (re.range "0" "9"))) (re.++ (str.to_re "NL") (re.opt (str.to_re " ")) ((_ re.loop 12 12) (re.union (re.range "0" "9") (str.to_re "B")))) (re.++ (str.to_re "PL") (re.opt (str.to_re " ")) ((_ re.loop 10 10) (re.range "0" "9"))) (re.++ (str.to_re "PT") (re.opt (str.to_re " ")) ((_ re.loop 9 9) (re.range "0" "9"))) (re.++ (str.to_re "RO") (re.opt (str.to_re " ")) ((_ re.loop 1 10) (re.range "0" "9"))) (re.++ (str.to_re "SE") (re.opt (str.to_re " ")) ((_ re.loop 12 12) (re.range "0" "9"))) (re.++ (str.to_re "SI") (re.opt (str.to_re " ")) ((_ re.loop 8 8) (re.range "0" "9"))) (re.++ (str.to_re "SK") (re.opt (str.to_re " ")) ((_ re.loop 10 10) (re.range "0" "9")))) (str.to_re "\u{a}")))) (re.inter (re.comp (re.++ (re.union (re.++ (str.to_re "AT") (re.opt (str.to_re " ")) (str.to_re "U") ((_ re.loop 7 7) (re.range "0" "9"))) (re.++ (str.to_re "BE") (re.opt (str.to_re " ")) ((_ re.loop 10 10) (re.range "0" "9"))) (re.++ (str.to_re "BG") (re.opt (str.to_re " ")) ((_ re.loop 9 10) (re.range "0" "9"))) (re.++ (str.to_re "CY") (re.opt (str.to_re " ")) ((_ re.loop 8 8) (re.range "0" "9")) ((_ re.loop 1 1) (re.range "A" "Z"))) (re.++ (str.to_re "CZ") (re.opt (str.to_re " ")) ((_ re.loop 8 10) (re.range "0" "9"))) (re.++ (str.to_re "DE") (re.opt (str.to_re " ")) ((_ re.loop 9 9) (re.range "0" "9"))) (re.++ (str.to_re "DK") (re.opt (str.to_re " ")) ((_ re.loop 8 8) (re.range "0" "9"))) (re.++ (str.to_re "EE") (re.opt (str.to_re " ")) ((_ re.loop 9 9) (re.range "0" "9"))) (re.++ (str.to_re "EL") (re.opt (str.to_re " ")) ((_ re.loop 9 9) (re.range "0" "9"))) (re.++ (str.to_re "ES") (re.opt (str.to_re " ")) ((_ re.loop 9 9) (re.union (re.range "0" "9") (re.range "A" "Z")))) (re.++ (str.to_re "FI") (re.opt (str.to_re " ")) ((_ re.loop 8 8) (re.range "0" "9"))) (re.++ (str.to_re "FR") (re.opt (str.to_re " ")) ((_ re.loop 11 11) (re.union (re.range "0" "9") (re.range "A" "Z")))) (re.++ (str.to_re "HU") (re.opt (str.to_re " ")) ((_ re.loop 8 8) (re.range "0" "9"))) (re.++ (str.to_re "IE") (re.opt (str.to_re " ")) ((_ re.loop 8 8) (re.union (re.range "0" "9") (re.range "A" "Z")))) (re.++ (str.to_re "IT") (re.opt (str.to_re " ")) ((_ re.loop 11 11) (re.range "0" "9"))) (re.++ (str.to_re "LT") (re.opt (str.to_re " ")) (re.union ((_ re.loop 9 9) (re.range "0" "9")) ((_ re.loop 12 12) (re.range "0" "9")))) (re.++ (str.to_re "LU") (re.opt (str.to_re " ")) ((_ re.loop 8 8) (re.range "0" "9"))) (re.++ (str.to_re "LV") (re.opt (str.to_re " ")) ((_ re.loop 11 11) (re.range "0" "9"))) (re.++ (str.to_re "MT") (re.opt (str.to_re " ")) ((_ re.loop 8 8) (re.range "0" "9"))) (re.++ (str.to_re "NL") (re.opt (str.to_re " ")) ((_ re.loop 12 12) (re.union (re.range "0" "9") (str.to_re "B")))) (re.++ (str.to_re "PL") (re.opt (str.to_re " ")) ((_ re.loop 10 10) (re.range "0" "9"))) (re.++ (str.to_re "PT") (re.opt (str.to_re " ")) ((_ re.loop 9 9) (re.range "0" "9"))) (re.++ (str.to_re "RO") (re.opt (str.to_re " ")) ((_ re.loop 2 10) (re.range "0" "9"))) (re.++ (str.to_re "SE") (re.opt (str.to_re " ")) ((_ re.loop 12 12) (re.range "0" "9"))) (re.++ (str.to_re "SI") (re.opt (str.to_re " ")) ((_ re.loop 8 8) (re.range "0" "9"))) (re.++ (str.to_re "SK") (re.opt (str.to_re " ")) ((_ re.loop 10 10) (re.range "0" "9")))) (str.to_re "\u{a}"))) (re.++ (re.union (re.++ (str.to_re "AT") (re.opt (str.to_re " ")) (str.to_re "U") ((_ re.loop 7 7) (re.range "0" "9"))) (re.++ (str.to_re "BE") (re.opt (str.to_re " ")) ((_ re.loop 10 10) (re.range "0" "9"))) (re.++ (str.to_re "BG") (re.opt (str.to_re " ")) ((_ re.loop 9 10) (re.range "0" "9"))) (re.++ (str.to_re "CY") (re.opt (str.to_re " ")) ((_ re.loop 8 8) (re.range "0" "9")) ((_ re.loop 1 1) (re.range "A" "Z"))) (re.++ (str.to_re "CZ") (re.opt (str.to_re " ")) ((_ re.loop 8 10) (re.range "0" "9"))) (re.++ (str.to_re "DE") (re.opt (str.to_re " ")) ((_ re.loop 9 9) (re.range "0" "9"))) (re.++ (str.to_re "DK") (re.opt (str.to_re " ")) ((_ re.loop 8 8) (re.range "0" "9"))) (re.++ (str.to_re "EE") (re.opt (str.to_re " ")) ((_ re.loop 9 9) (re.range "0" "9"))) (re.++ (str.to_re "EL") (re.opt (str.to_re " ")) ((_ re.loop 9 9) (re.range "0" "9"))) (re.++ (str.to_re "ES") (re.opt (str.to_re " ")) ((_ re.loop 9 9) (re.union (re.range "0" "9") (re.range "A" "Z")))) (re.++ (str.to_re "FI") (re.opt (str.to_re " ")) ((_ re.loop 8 8) (re.range "0" "9"))) (re.++ (str.to_re "FR") (re.opt (str.to_re " ")) ((_ re.loop 11 11) (re.union (re.range "0" "9") (re.range "A" "Z")))) (re.++ (str.to_re "HU") (re.opt (str.to_re " ")) ((_ re.loop 7 8) (re.range "0" "9"))) (re.++ (str.to_re "IE") (re.opt (str.to_re " ")) ((_ re.loop 8 8) (re.union (re.range "0" "9") (re.range "A" "Z")))) (re.++ (str.to_re "IT") (re.opt (str.to_re " ")) ((_ re.loop 11 11) (re.range "0" "9"))) (re.++ (str.to_re "LT") (re.opt (str.to_re " ")) (re.union ((_ re.loop 9 9) (re.range "0" "9")) ((_ re.loop 12 12) (re.range "0" "9")))) (re.++ (str.to_re "LU") (re.inter (re.opt (str.to_re " ")) (re.* (re.range " " "~"))) ((_ re.loop 8 8) (re.range "0" "9"))) (re.++ (str.to_re "LV") (re.opt (str.to_re " ")) ((_ re.loop 11 11) (re.range "0" "9"))) (re.++ (str.to_re "MT") (re.opt (str.to_re " ")) ((_ re.loop 8 8) (re.range "0" "9"))) (re.++ (str.to_re "NL") (re.opt (str.to_re " ")) ((_ re.loop 12 12) (re.union (re.range "0" "9") (str.to_re "B")))) (re.++ (str.to_re "PL") (re.opt (str.to_re " ")) ((_ re.loop 10 10) (re.range "0" "9"))) (re.++ (str.to_re "PT") (re.opt (str.to_re " ")) ((_ re.loop 9 9) (re.range "0" "9"))) (re.++ (str.to_re "RO") (re.opt (str.to_re " ")) ((_ re.loop 1 10) (re.range "0" "9"))) (re.++ (str.to_re "SE") (re.opt (str.to_re " ")) ((_ re.loop 12 12) (re.range "0" "9"))) (re.++ (str.to_re "SI") (re.opt (str.to_re " ")) ((_ re.loop 8 8) (re.range "0" "9"))) (re.++ (str.to_re "SK") (re.opt (str.to_re " ")) ((_ re.loop 10 10) (re.range "0" "9")))) (str.to_re "\u{a}"))))))

(check-sat)
(exit)
